\* ABC_co._Advertising_Mix_Problem *\
Minimize
Total_Cost_of_Advertising: Google_Ads + 2 Instagram_Ads
Subject To
_C1: Google_Ads >= 5
_C2: 2 Google_Ads + 4 Instagram_Ads >= 18
_C3: 3 Instagram_Ads >= 5
Bounds
 0 <= Google_Ads
Generals
Google_Ads
End
